VACCINE = Vaccine(1..9);

m = 40;
age = [BABY, CHILD, YOUTH, SENIOR, AGED, YOUTH, BABY, SENIOR, ADULT, ANCIENT, BABY, CHILD, YOUTH, ADULT, AGED, YOUTH, BABY, ADULT, ADULT, ANCIENT,BABY, CHILD, YOUTH, ADULT, AGED, YOUTH, BABY, ADULT, ADULT, ANCIENT, BABY, CHILD, SENIOR, ADULT, AGED, YOUTH, BABY, ADULT, ADULT, ANCIENT];
gender = [MALE, FEMALE, OTHER, MALE, FEMALE, MALE, FEMALE, MALE, MALE, FEMALE, MALE, FEMALE, OTHER, MALE, FEMALE, MALE, FEMALE, MALE, MALE, FEMALE, OTHER, OTHER, MALE, FEMALE, OTHER, MALE, FEMALE, MALE, FEMALE, MALE,OTHER, OTHER, MALE, FEMALE, OTHER, MALE, FEMALE, MALE, FEMALE, MALE];
health = [GOOD, POOR, GOOD, COMPROMISED, GOOD, GOOD, POOR, GOOD, GOOD, POOR, GOOD, COMPROMISED, GOOD, GOOD, POOR, GOOD, COMPROMISED, GOOD, GOOD, POOR, POOR, POOR, COMPROMISED, GOOD, GOOD, POOR, POOR, COMPROMISED, COMPROMISED, GOOD, GOOD, POOR, POOR, POOR, COMPROMISED, GOOD, GOOD, POOR, POOR, COMPROMISED];
exposure = [AVERAGE, EXTREME, LOW, HIGH, AVERAGE, EXTREME, LOW, HIGH, LOW, HIGH, LOW, AVERAGE, EXTREME, LOW, HIGH, AVERAGE, AVERAGE, AVERAGE, AVERAGE, EXTREME, LOW, AVERAGE, EXTREME, LOW, LOW, HIGH, LOW, AVERAGE, EXTREME, LOW, HIGH, AVERAGE, AVERAGE, AVERAGE, AVERAGE, EXTREME, LOW, AVERAGE, EXTREME, LOW];
size = [12, 28, 19, 14, 167, 300, 22, 14, 122, 54, 67, 10, 35, 10, 100, 46, 60, 18, 145, 170, 12, 28, 19, 14, 167, 300, 22, 14, 122, 54, 67, 10, 35, 10, 100, 46, 60, 18, 145, 170];

minsize = 5;
age_group_min = [1,1,1,1,1,1,1];
age_group_max = [20,20,20,20,20,20,20];
max_people_diff = 100;
max_share_vaccines = 9;

health_information = [1,2,5];
exposure_information = [1,2,4,6];

